301 5
10 10 10 10 10 

0 0 0 0 0 0 5 2 34 66 98 110 
0 0 0 0 0 0 6 3 4 5 6 7 32 
4 6 0 3 2 0 5 14 11 10 9 8 
8 6 0 3 6 0 5 31 12 11 10 8 
4 10 0 3 5 0 4 18 10 9 8 
6 5 0 10 10 0 4 14 11 10 8 
2 7 0 6 6 0 2 30 9 
7 6 0 8 6 0 3 20 17 13 
4 5 0 7 8 0 3 29 16 12 
3 9 0 4 9 0 2 20 15 
9 10 0 10 8 0 5 28 26 23 20 18 
3 8 0 5 8 0 1 15 
8 4 0 10 3 0 1 15 
9 8 0 9 9 0 1 15 
1 10 0 4 7 0 5 28 27 26 23 19 
5 6 0 10 7 0 5 28 27 26 25 19 
5 4 0 8 10 0 5 29 27 26 25 21 
4 7 0 10 6 0 2 29 19 
5 10 0 10 10 0 1 21 
9 7 0 8 8 0 2 29 25 
2 7 0 7 10 0 1 22 
4 9 0 10 9 0 1 24 
9 10 0 10 8 0 1 25 
7 7 0 9 10 0 1 33 
8 10 0 6 6 0 1 33 
5 7 0 10 10 0 1 33 
7 9 0 8 5 0 1 33 
3 7 0 6 10 0 1 33 
5 6 0 10 10 0 1 33 
3 10 0 8 8 0 1 33 
3 5 0 10 6 0 1 33 
6 10 0 3 5 0 1 33 
0 0 0 0 0 0 1 278 
0 0 0 0 0 0 6 35 36 37 38 39 41 
7 3 0 0 3 5 5 52 49 43 42 40 
5 6 0 0 3 2 5 52 50 49 43 40 
5 10 0 0 9 7 4 50 49 43 40 
7 10 0 0 6 8 3 52 42 40 
6 10 0 0 5 6 4 52 45 44 42 
10 8 0 0 5 10 4 48 47 46 44 
6 6 0 0 7 7 4 50 48 46 44 
7 7 0 0 10 10 4 53 50 47 46 
1 10 0 0 8 10 1 45 
3 6 0 0 8 7 3 54 53 51 
7 10 0 0 8 7 3 54 53 51 
7 8 0 0 9 10 2 54 51 
5 10 0 0 4 6 2 54 51 
5 5 0 0 9 10 2 53 51 
10 9 0 0 10 10 2 54 51 
3 9 0 0 9 9 1 51 
8 10 0 0 10 5 5 64 63 58 56 55 
3 6 0 0 9 9 3 58 55 53 
10 5 0 0 9 10 4 64 63 59 57 
1 9 0 0 10 8 3 63 58 55 
5 9 0 0 10 5 2 62 59 
2 7 0 0 8 5 1 57 
4 10 0 0 10 10 2 62 61 
9 9 0 0 5 8 2 62 61 
1 3 0 0 7 4 1 60 
6 6 0 0 3 9 1 61 
6 6 0 0 7 10 1 65 
7 8 0 0 7 6 1 65 
3 7 0 0 9 5 1 65 
6 3 0 0 8 7 1 65 
0 0 0 0 0 0 1 278 
0 0 0 0 0 0 6 67 68 69 70 71 96 
1 2 0 5 6 0 5 80 75 74 73 72 
3 10 0 10 5 0 5 80 79 75 73 72 
8 6 0 10 5 0 5 88 76 75 73 72 
7 8 0 9 8 0 4 82 75 74 72 
6 6 0 3 6 0 2 95 74 
3 10 0 10 7 0 2 78 77 
2 9 0 10 5 0 3 83 82 81 
9 10 0 8 9 0 2 79 76 
1 5 0 10 3 0 2 83 81 
10 7 0 9 9 0 2 92 81 
2 4 0 4 6 0 2 92 81 
8 10 0 10 9 0 4 93 87 84 83 
8 10 0 4 10 0 1 81 
6 4 0 6 10 0 1 81 
10 10 0 3 6 0 5 94 93 91 87 84 
1 4 0 6 9 0 3 92 90 84 
3 9 0 4 6 0 3 92 91 90 
3 10 0 6 10 0 1 85 
3 8 0 8 10 0 1 86 
9 6 0 10 8 0 1 89 
9 4 0 10 7 0 1 90 
1 7 0 10 10 0 1 92 
6 9 0 10 10 0 1 97 
5 10 0 10 9 0 1 97 
4 8 0 8 5 0 1 97 
5 6 0 4 10 0 1 97 
7 7 0 4 10 0 1 97 
2 10 0 6 6 0 1 97 
2 8 0 8 5 0 1 97 
3 8 0 10 6 0 1 97 
0 0 0 0 0 0 1 278 
0 0 0 0 0 0 5 99 100 101 102 103 
10 0 0 4 0 0 3 106 105 104 
2 0 0 8 0 0 2 106 104 
8 0 0 7 0 0 2 108 105 
2 0 0 9 0 0 2 108 105 
9 0 0 8 0 0 1 104 
2 0 0 5 0 0 2 108 107 
1 0 0 6 0 0 1 107 
5 0 0 10 0 0 1 107 
7 0 0 9 0 0 1 109 
9 0 0 9 0 0 1 109 
0 0 0 0 0 0 5 142 164 186 208 230 
0 0 0 0 0 0 6 111 112 113 114 115 125 
7 3 0 0 4 3 5 129 127 118 117 116 
9 6 0 0 2 8 5 127 124 123 118 116 
2 10 0 0 10 7 4 129 123 118 116 
2 6 0 0 6 3 4 129 128 117 116 
3 10 0 0 9 9 3 129 128 117 
4 10 0 0 6 7 3 122 120 119 
5 7 0 0 6 7 3 124 123 122 
5 10 0 0 8 6 2 128 121 
10 6 0 0 6 6 2 130 126 
1 5 0 0 7 10 2 130 126 
3 10 0 0 7 8 2 130 126 
1 4 0 0 7 6 1 126 
2 8 0 0 10 7 1 126 
7 10 0 0 10 10 1 126 
3 7 0 0 7 10 1 126 
3 6 0 0 6 4 5 140 139 136 132 131 
5 10 0 0 10 7 3 139 132 131 
3 7 0 0 5 10 2 139 131 
10 6 0 0 10 10 2 136 130 
2 9 0 0 9 7 4 140 139 138 137 
6 10 0 0 3 6 2 138 133 
9 10 0 0 10 9 2 138 135 
9 1 0 0 9 9 1 134 
6 10 0 0 10 9 1 137 
8 3 0 0 7 10 1 137 
9 9 0 0 6 6 1 138 
1 10 0 0 8 5 1 141 
10 6 0 0 10 8 1 141 
8 8 0 0 9 10 1 141 
4 8 0 0 8 8 1 141 
0 0 0 0 0 0 1 278 
0 0 0 0 0 0 9 143 144 146 147 149 152 160 161 162 
1 1 0 0 0 10 3 159 156 145 
7 5 0 0 0 4 4 158 156 155 151 
2 4 0 0 0 10 2 154 148 
4 3 0 0 0 9 3 157 154 153 
4 9 0 0 0 9 2 154 150 
1 7 0 0 0 7 1 150 
10 5 0 0 0 4 1 151 
7 6 0 0 0 7 1 153 
1 9 0 0 0 6 1 153 
3 10 0 0 0 8 1 155 
2 10 0 0 0 10 1 163 
10 10 0 0 0 6 1 163 
1 9 0 0 0 3 1 163 
5 10 0 0 0 6 1 163 
3 8 0 0 0 10 1 163 
5 10 0 0 0 10 1 163 
10 10 0 0 0 6 1 163 
10 7 0 0 0 10 1 163 
6 10 0 0 0 5 1 163 
10 7 0 0 0 10 1 163 
0 0 0 0 0 0 1 278 
0 0 0 0 0 0 9 165 166 167 168 169 170 171 175 176 
3 3 2 0 0 0 5 184 183 178 174 172 
9 9 5 0 0 0 4 184 183 181 173 
4 8 7 0 0 0 4 183 182 178 174 
1 10 9 0 0 0 3 183 174 172 
3 8 9 0 0 0 3 178 174 172 
5 10 6 0 0 0 3 183 178 174 
6 3 5 0 0 0 4 182 180 179 178 
6 6 6 0 0 0 3 182 181 177 
7 8 10 0 0 0 2 182 174 
6 8 9 0 0 0 1 177 
9 10 5 0 0 0 1 177 
7 7 10 0 0 0 1 177 
3 6 10 0 0 0 2 180 179 
1 8 10 0 0 0 1 181 
5 9 9 0 0 0 1 185 
7 4 9 0 0 0 1 185 
10 6 7 0 0 0 1 185 
9 8 8 0 0 0 1 185 
6 9 8 0 0 0 1 185 
5 10 6 0 0 0 1 185 
0 0 0 0 0 0 1 278 
0 0 0 0 0 0 9 187 188 190 191 192 203 204 205 206 
4 3 0 0 1 0 3 199 196 189 
3 4 0 0 8 0 6 202 200 199 198 196 194 
9 5 0 0 5 0 4 200 198 197 193 
9 5 0 0 10 0 4 198 197 196 195 
10 10 0 0 8 0 3 201 196 195 
6 10 0 0 10 0 2 199 197 
8 6 0 0 8 0 1 194 
4 10 0 0 6 0 1 195 
6 7 0 0 6 0 1 207 
3 10 0 0 7 0 1 207 
3 10 0 0 8 0 1 207 
5 10 0 0 8 0 1 207 
6 7 0 0 9 0 1 207 
4 7 0 0 8 0 1 207 
2 10 0 0 10 0 1 207 
9 9 0 0 8 0 1 207 
3 10 0 0 10 0 1 207 
2 3 0 0 5 0 1 207 
6 8 0 0 5 0 1 207 
8 6 0 0 10 0 1 207 
0 0 0 0 0 0 1 278 
0 0 0 0 0 0 5 209 210 211 212 217 
2 4 0 0 6 0 3 220 216 213 
2 4 0 0 5 0 3 220 216 213 
3 6 0 0 3 0 6 228 227 220 218 216 215 
4 5 0 0 9 0 3 218 216 214 
2 10 0 0 4 0 4 228 227 218 215 
4 3 0 0 7 0 3 228 227 215 
7 9 0 0 5 0 4 225 222 221 219 
2 8 0 0 9 0 4 225 222 221 219 
6 6 0 0 10 0 4 228 227 220 218 
10 6 0 0 8 0 3 225 224 223 
6 10 0 0 8 0 2 226 224 
4 9 0 0 10 0 2 224 223 
7 7 0 0 10 0 1 223 
9 8 0 0 7 0 1 223 
7 9 0 0 8 0 1 229 
6 9 0 0 5 0 1 229 
8 9 0 0 7 0 1 229 
3 8 0 0 10 0 1 229 
1 10 0 0 9 0 1 229 
8 10 0 0 10 0 1 229 
0 0 0 0 0 0 1 278 
0 0 0 0 0 0 4 231 232 234 235 
4 0 0 4 0 0 3 239 236 233 
1 0 0 10 0 0 3 239 237 236 
7 0 0 5 0 0 3 240 238 237 
2 0 0 10 0 0 3 239 238 237 
5 0 0 6 0 0 2 240 237 
2 0 0 5 0 0 1 238 
6 0 0 10 0 0 1 241 
9 0 0 9 0 0 1 241 
4 0 0 7 0 0 1 241 
8 0 0 9 0 0 1 241 
0 0 0 0 0 0 3 242 254 266 
0 0 0 0 0 0 6 243 244 245 247 248 249 
6 0 5 0 0 0 3 252 250 246 
3 0 10 0 0 0 2 250 246 
10 0 8 0 0 0 2 252 250 
6 0 6 0 0 0 1 251 
7 0 10 0 0 0 1 251 
9 0 10 0 0 0 1 250 
1 0 6 0 0 0 1 250 
8 0 3 0 0 0 1 253 
7 0 8 0 0 0 1 253 
3 0 9 0 0 0 1 253 
0 0 0 0 0 0 1 278 
0 0 0 0 0 0 5 255 256 257 263 264 
7 0 0 0 0 4 4 262 261 260 259 
3 0 0 0 0 5 3 262 261 258 
1 0 0 0 0 9 2 260 259 
4 0 0 0 0 9 1 259 
6 0 0 0 0 10 1 265 
5 0 0 0 0 10 1 265 
1 0 0 0 0 10 1 265 
2 0 0 0 0 5 1 265 
4 0 0 0 0 7 1 265 
6 0 0 0 0 6 1 265 
0 0 0 0 0 0 1 278 
0 0 0 0 0 0 4 267 268 269 270 
9 0 5 0 0 0 3 273 272 271 
5 0 8 0 0 0 3 273 272 271 
1 0 9 0 0 0 2 273 272 
2 0 8 0 0 0 2 272 271 
3 0 10 0 0 0 3 276 275 274 
5 0 10 0 0 0 2 276 274 
7 0 7 0 0 0 2 275 274 
5 0 4 0 0 0 1 277 
7 0 10 0 0 0 1 277 
4 0 4 0 0 0 1 277 
0 0 0 0 0 0 1 278 
0 0 0 0 0 0 3 279 280 284 
4 0 0 0 0 1 3 283 282 281 
1 0 0 0 0 5 1 281 
4 0 0 0 0 10 4 288 287 286 285 
10 0 0 0 0 6 4 288 287 286 285 
4 0 0 0 0 7 4 288 287 286 285 
5 0 0 0 0 7 1 285 
10 0 0 0 0 10 1 289 
3 0 0 0 0 9 1 289 
1 0 0 0 0 10 1 289 
9 0 0 0 0 10 1 289 
0 0 0 0 0 0 1 290 
0 0 0 0 0 0 6 291 292 293 298 299 300 
7 0 0 6 0 0 2 297 296 
3 0 0 6 0 0 2 296 295 
10 0 0 8 0 0 1 294 
7 0 0 10 0 0 1 295 
3 0 0 4 0 0 1 301 
3 0 0 10 0 0 1 301 
3 0 0 10 0 0 1 301 
1 0 0 9 0 0 1 301 
2 0 0 8 0 0 1 301 
10 0 0 4 0 0 1 301 
0 0 0 0 0 0 0 
